DIMACS2
20 260 25 129 263 132 165 159 312 275 256 266 59 207 54 86 70 218 279 9 52
p edge 320 890
e 0 186 2.0
e 0 9 37.0
e 1 121 2.0
e 1 224 1.0
e 2 151 1.0
e 2 141 1.0
e 3 145 2.0
e 3 113 2.0
e 4 124 1.0
e 4 237 1.0
e 5 69 1.0
e 5 259 1.0
e 6 97 1.0
e 6 209 1.0
e 7 259 3.0
e 7 97 1.0
e 8 137 1.0
e 8 309 1.0
e 9 115 49.0
e 9 172 7.0
e 9 200 3.0
e 9 79 42.0
e 9 233 14.0
e 9 260 28.0
e 9 15 23.0
e 9 21 45.0
e 9 4 42.0
e 9 126 17.0
e 9 129 13.0
e 9 272 15.0
e 9 188 19.0
e 9 236 44.0
e 9 29 37.0
e 10 84 1.0
e 10 64 2.0
e 11 219 1.0
e 11 149 1.0
e 12 171 2.0
e 12 296 1.0
e 13 289 1.0
e 13 58 1.0
e 14 275 6.0
e 14 315 1.0
e 15 104 1.0
e 15 23 1.0
e 16 69 1.0
e 16 150 1.0
e 17 85 1.0
e 17 161 1.0
e 18 155 1.0
e 18 56 1.0
e 19 232 1.0
e 19 246 1.0
e 20 122 2.0
e 20 228 1.0
e 21 132 9.0
e 21 165 13.0
e 22 94 1.0
e 22 85 2.0
e 23 9 47.0
e 23 258 2.0
e 24 277 1.0
e 24 141 3.0
e 25 288 13.0
e 25 161 38.0
e 25 181 29.0
e 25 136 16.0
e 25 165 24.0
e 25 184 27.0
e 25 266 37.0
e 25 169 49.0
e 25 20 19.0
e 25 180 10.0
e 25 117 37.0
e 25 106 32.0
e 25 220 23.0
e 25 34 1.0
e 25 278 24.0
e 26 143 2.0
e 26 11 2.0
e 27 295 1.0
e 27 234 1.0
e 28 120 2.0
e 28 41 4.0
e 29 295 1.0
e 29 187 1.0
e 30 115 1.0
e 30 190 1.0
e 31 181 1.0
e 31 143 1.0
e 32 21 1.0
e 32 1 1.0
e 33 123 1.0
e 33 89 3.0
e 34 125 1.0
e 34 135 1.0
e 35 57 1.0
e 35 13 1.0
e 36 187 2.0
e 36 5 2.0
e 37 232 1.0
e 37 3 1.0
e 38 176 1.0
e 38 201 1.0
e 39 251 1.0
e 39 195 1.0
e 40 19 1.0
e 40 11 2.0
e 41 86 12.0
e 41 315 2.0
e 42 86 8.0
e 42 301 1.0
e 43 209 1.0
e 43 10 2.0
e 44 154 1.0
e 44 169 2.0
e 45 52 38.0
e 45 157 1.0
e 46 159 10.0
e 46 229 1.0
e 47 70 47.0
e 47 74 1.0
e 48 40 1.0
e 48 264 1.0
e 49 230 1.0
e 49 291 1.0
e 50 123 1.0
e 50 195 1.0
e 51 6 1.0
e 51 133 1.0
e 52 91 2.0
e 52 119 4.0
e 52 238 17.0
e 52 36 13.0
e 52 183 14.0
e 52 240 31.0
e 52 100 13.0
e 52 79 21.0
e 52 29 45.0
e 52 154 4.0
e 52 59 39.0
e 52 138 40.0
e 52 239 45.0
e 52 31 11.0
e 53 160 2.0
e 53 252 1.0
e 54 278 8.0
e 54 101 40.0
e 54 201 37.0
e 54 114 32.0
e 54 262 40.0
e 54 244 41.0
e 54 218 39.0
e 54 93 6.0
e 54 13 28.0
e 54 131 11.0
e 54 178 1.0
e 54 155 36.0
e 55 192 1.0
e 55 198 1.0
e 56 2 1.0
e 56 22 1.0
e 57 54 34.0
e 57 25 22.0
e 58 217 1.0
e 58 94 1.0
e 59 265 43.0
e 59 5 24.0
e 59 129 13.0
e 59 38 14.0
e 59 234 8.0
e 59 79 40.0
e 59 153 45.0
e 59 253 19.0
e 59 53 18.0
e 59 131 41.0
e 59 62 8.0
e 59 83 29.0
e 59 117 49.0
e 59 107 29.0
e 59 191 44.0
e 59 98 24.0
e 60 230 1.0
e 60 198 1.0
e 61 80 1.0
e 61 152 1.0
e 62 258 2.0
e 62 54 28.0
e 63 74 1.0
e 63 255 1.0
e 64 210 1.0
e 64 12 1.0
e 65 277 1.0
e 65 115 1.0
e 66 269 1.0
e 66 260 9.0
e 67 208 1.0
e 67 103 1.0
e 68 58 1.0
e 68 198 1.0
e 69 276 2.0
e 69 64 2.0
e 70 149 12.0
e 70 287 11.0
e 70 156 18.0
e 70 138 35.0
e 70 188 43.0
e 70 32 10.0
e 70 59 16.0
e 70 139 8.0
e 70 16 30.0
e 70 310 13.0
e 70 190 19.0
e 70 27 20.0
e 70 120 47.0
e 70 203 5.0
e 70 106 22.0
e 71 18 1.0
e 71 224 1.0
e 72 238 3.0
e 72 134 2.0
e 73 97 1.0
e 73 196 1.0
e 74 283 1.0
e 74 301 1.0
e 75 212 2.0
e 75 52 9.0
e 76 122 1.0
e 76 133 1.0
e 77 202 1.0
e 77 38 1.0
e 78 23 1.0
e 78 77 1.0
e 79 318 1.0
e 79 124 1.0
e 80 195 1.0
e 80 161 1.0
e 81 24 1.0
e 81 135 1.0
e 82 86 48.0
e 82 262 1.0
e 83 205 2.0
e 83 266 4.0
e 84 12 1.0
e 84 102 2.0
e 85 277 1.0
e 85 271 1.0
e 86 123 7.0
e 86 3 30.0
e 86 108 1.0
e 86 311 26.0
e 86 39 6.0
e 86 69 7.0
e 86 260 20.0
e 86 179 25.0
e 86 182 8.0
e 86 139 34.0
e 86 32 26.0
e 86 141 13.0
e 86 183 41.0
e 86 196 9.0
e 87 265 1.0
e 87 145 3.0
e 88 47 1.0
e 88 97 1.0
e 89 48 1.0
e 89 226 1.0
e 90 127 1.0
e 90 135 2.0
e 91 192 2.0
e 91 1 1.0
e 92 176 1.0
e 92 65 1.0
e 93 82 1.0
e 93 95 2.0
e 94 268 1.0
e 94 49 1.0
e 95 292 1.0
e 95 185 2.0
e 96 3 2.0
e 96 85 1.0
e 97 275 43.0
e 97 136 2.0
e 98 211 1.0
e 98 167 1.0
e 99 149 2.0
e 99 208 2.0
e 100 81 1.0
e 100 218 47.0
e 101 174 1.0
e 101 212 2.0
e 102 158 1.0
e 102 70 17.0
e 103 157 1.0
e 103 152 1.0
e 104 224 3.0
e 104 56 1.0
e 105 258 1.0
e 105 81 1.0
e 106 265 1.0
e 106 123 2.0
e 107 277 1.0
e 107 235 1.0
e 108 224 2.0
e 108 52 4.0
e 109 42 1.0
e 109 253 4.0
e 110 232 1.0
e 110 111 1.0
e 111 143 2.0
e 111 96 1.0
e 112 171 2.0
e 112 39 1.0
e 113 7 1.0
e 113 221 1.0
e 114 314 1.0
e 114 11 2.0
e 115 6 1.0
e 115 136 1.0
e 116 33 2.0
e 116 298 2.0
e 117 306 1.0
e 117 135 1.0
e 118 308 1.0
e 118 50 1.0
e 119 223 2.0
e 119 216 2.0
e 120 75 1.0
e 120 2 1.0
e 121 54 40.0
e 121 199 1.0
e 122 45 1.0
e 122 5 1.0
e 123 14 2.0
e 123 30 2.0
e 124 235 1.0
e 124 123 3.0
e 125 51 1.0
e 125 221 1.0
e 126 114 1.0
e 126 81 1.0
e 127 42 1.0
e 127 164 1.0
e 128 173 2.0
e 128 10 1.0
e 129 244 48.0
e 129 208 47.0
e 129 228 6.0
e 129 253 29.0
e 129 52 24.0
e 129 281 47.0
e 129 17 28.0
e 129 313 28.0
e 129 311 49.0
e 129 132 20.0
e 129 8 23.0
e 129 33 35.0
e 129 170 34.0
e 129 126 16.0
e 129 91 31.0
e 130 281 2.0
e 130 101 1.0
e 131 105 1.0
e 131 57 1.0
e 132 72 1.0
e 132 115 45.0
e 132 170 33.0
e 132 104 33.0
e 132 108 34.0
e 132 245 42.0
e 132 297 5.0
e 132 194 18.0
e 132 239 36.0
e 132 15 39.0
e 132 317 34.0
e 132 86 3.0
e 132 8 6.0
e 132 46 36.0
e 132 278 14.0
e 133 194 1.0
e 133 89 1.0
e 134 269 1.0
e 134 237 1.0
e 135 130 1.0
e 135 313 1.0
e 136 67 2.0
e 136 312 18.0
e 137 115 1.0
e 137 80 1.0
e 138 99 1.0
e 138 193 1.0
e 139 176 1.0
e 139 274 1.0
e 140 35 1.0
e 140 255 1.0
e 141 254 1.0
e 141 212 1.0
e 142 261 1.0
e 142 152 1.0
e 143 175 1.0
e 143 284 1.0
e 144 149 2.0
e 144 97 2.0
e 145 42 1.0
e 145 273 1.0
e 146 60 1.0
e 146 267 1.0
e 147 263 29.0
e 147 64 1.0
e 148 15 3.0
e 148 221 1.0
e 149 177 2.0
e 149 126 1.0
e 150 264 1.0
e 150 28 1.0
e 151 76 1.0
e 151 255 1.0
e 152 83 1.0
e 152 119 1.0
e 153 1 1.0
e 153 111 1.0
e 154 101 2.0
e 154 125 2.0
e 155 202 1.0
e 155 72 2.0
e 156 173 1.0
e 156 257 1.0
e 157 200 1.0
e 157 17 1.0
e 158 137 1.0
e 158 154 2.0
e 159 130 20.0
e 159 263 32.0
e 159 239 29.0
e 159 8 17.0
e 159 312 18.0
e 159 52 31.0
e 159 271 38.0
e 159 86 28.0
e 159 129 10.0
e 159 165 48.0
e 159 243 19.0
e 159 203 34.0
e 159 9 21.0
e 159 145 28.0
e 159 70 6.0
e 159 23 34.0
e 160 43 2.0
e 160 197 2.0
e 161 100 1.0
e 161 89 1.0
e 162 204 1.0
e 162 36 1.0
e 163 214 5.0
e 163 116 2.0
e 164 137 1.0
e 164 150 1.0
e 165 33 36.0
e 165 298 18.0
e 165 104 12.0
e 165 297 40.0
e 165 211 7.0
e 165 299 47.0
e 165 179 1.0
e 165 52 36.0
e 165 108 26.0
e 165 91 6.0
e 165 34 6.0
e 165 247 7.0
e 165 191 23.0
e 165 273 35.0
e 166 72 2.0
e 166 115 1.0
e 167 60 3.0
e 167 14 2.0
e 168 282 1.0
e 168 178 1.0
e 169 162 1.0
e 169 174 1.0
e 170 92 1.0
e 170 309 1.0
e 171 78 1.0
e 171 267 1.0
e 172 252 1.0
e 172 152 1.0
e 173 193 1.0
e 173 164 1.0
e 174 48 1.0
e 174 198 1.0
e 175 28 1.0
e 175 115 1.0
e 176 236 1.0
e 176 318 2.0
e 177 206 1.0
e 177 200 3.0
e 178 312 6.0
e 178 254 1.0
e 179 195 1.0
e 179 58 1.0
e 180 87 1.0
e 180 195 1.0
e 181 78 1.0
e 181 68 2.0
e 182 82 1.0
e 182 310 1.0
e 183 234 2.0
e 183 225 1.0
e 184 134 1.0
e 184 204 1.0
e 185 57 1.0
e 185 48 1.0
e 186 259 1.0
e 186 47 1.0
e 187 297 1.0
e 187 220 1.0
e 188 140 1.0
e 188 296 1.0
e 189 253 1.0
e 189 259 1.0
e 190 233 1.0
e 190 123 1.0
e 191 68 1.0
e 191 60 2.0
e 192 27 1.0
e 192 37 3.0
e 193 186 1.0
e 193 124 1.0
e 194 255 2.0
e 194 218 16.0
e 195 12 1.0
e 195 4 1.0
e 196 221 1.0
e 196 294 1.0
e 197 31 2.0
e 197 68 1.0
e 198 232 1.0
e 198 173 2.0
e 199 42 2.0
e 199 236 1.0
e 200 158 1.0
e 200 5 2.0
e 201 18 1.0
e 201 204 1.0
e 202 242 1.0
e 202 128 2.0
e 203 45 1.0
e 203 144 1.0
e 204 16 1.0
e 204 308 1.0
e 205 274 1.0
e 205 76 1.0
e 206 133 1.0
e 206 26 1.0
e 207 109 43.0
e 207 163 5.0
e 207 25 40.0
e 207 231 23.0
e 207 90 5.0
e 207 165 23.0
e 207 110 17.0
e 207 114 8.0
e 207 92 12.0
e 207 46 35.0
e 207 287 48.0
e 207 289 26.0
e 207 244 30.0
e 207 240 2.0
e 207 312 24.0
e 207 288 48.0
e 208 229 1.0
e 208 258 1.0
e 209 144 1.0
e 209 147 2.0
e 210 202 1.0
e 210 212 1.0
e 211 71 1.0
e 211 140 2.0
e 212 218 25.0
e 212 85 1.0
e 213 147 1.0
e 213 156 1.0
e 214 100 2.0
e 214 94 1.0
e 215 43 2.0
e 215 294 3.0
e 216 245 1.0
e 216 14 2.0
e 217 140 1.0
e 217 318 2.0
e 218 215 13.0
e 218 309 10.0
e 218 272 18.0
e 218 260 46.0
e 218 159 47.0
e 218 109 42.0
e 218 118 30.0
e 218 168 46.0
e 218 305 3.0
e 218 263 45.0
e 218 62 17.0
e 218 41 14.0
e 219 185 1.0
e 219 155 1.0
e 220 250 1.0
e 220 178 1.0
e 221 180 1.0
e 221 225 1.0
e 222 87 1.0
e 222 77 2.0
e 223 262 1.0
e 223 287 1.0
e 224 220 2.0
e 224 280 1.0
e 225 146 1.0
e 225 151 1.0
e 226 128 1.0
e 226 30 1.0
e 227 28 2.0
e 227 30 1.0
e 228 34 1.0
e 228 130 1.0
e 229 135 3.0
e 229 221 1.0
e 230 224 1.0
e 230 242 1.0
e 231 268 1.0
e 231 301 1.0
e 232 28 1.0
e 232 41 2.0
e 233 199 1.0
e 233 0 1.0
e 234 90 1.0
e 234 311 1.0
e 235 127 1.0
e 235 230 1.0
e 236 102 1.0
e 236 84 1.0
e 237 49 1.0
e 237 113 1.0
e 238 97 1.0
e 238 189 1.0
e 239 142 1.0
e 239 36 2.0
e 240 184 2.0
e 240 31 1.0
e 241 181 1.0
e 241 43 2.0
e 242 193 1.0
e 242 80 1.0
e 243 116 1.0
e 243 22 1.0
e 244 5 1.0
e 244 50 1.0
e 245 28 1.0
e 245 276 1.0
e 246 81 1.0
e 246 314 1.0
e 247 189 1.0
e 247 58 1.0
e 248 82 1.0
e 248 293 1.0
e 249 261 1.0
e 249 176 1.0
e 250 76 1.0
e 250 298 2.0
e 251 88 2.0
e 251 213 2.0
e 252 142 1.0
e 252 115 1.0
e 253 314 1.0
e 253 207 24.0
e 254 249 1.0
e 254 95 1.0
e 255 88 1.0
e 255 93 1.0
e 256 50 20.0
e 256 37 26.0
e 256 226 12.0
e 256 41 6.0
e 256 194 3.0
e 256 240 6.0
e 256 292 15.0
e 256 248 6.0
e 256 19 20.0
e 256 118 42.0
e 256 25 13.0
e 256 317 42.0
e 256 146 31.0
e 256 270 42.0
e 256 205 47.0
e 256 86 48.0
e 257 102 2.0
e 257 227 1.0
e 258 197 2.0
e 258 219 1.0
e 259 256 45.0
e 259 281 1.0
e 260 45 49.0
e 260 243 8.0
e 260 147 30.0
e 260 319 35.0
e 260 159 22.0
e 260 120 23.0
e 260 129 7.0
e 260 207 16.0
e 260 44 43.0
e 260 20 23.0
e 260 46 37.0
e 260 67 36.0
e 260 109 6.0
e 261 223 1.0
e 261 202 2.0
e 262 134 2.0
e 262 217 2.0
e 263 227 25.0
e 263 96 38.0
e 263 207 13.0
e 263 210 3.0
e 263 148 8.0
e 263 118 36.0
e 263 70 30.0
e 263 25 40.0
e 263 121 27.0
e 263 54 47.0
e 263 279 33.0
e 263 319 32.0
e 263 282 20.0
e 263 20 11.0
e 264 103 3.0
e 264 5 1.0
e 265 251 1.0
e 265 35 1.0
e 266 168 25.0
e 266 318 4.0
e 266 213 10.0
e 266 44 40.0
e 266 90 43.0
e 266 285 33.0
e 266 53 17.0
e 266 129 11.0
e 266 54 12.0
e 266 231 20.0
e 266 132 15.0
e 266 175 38.0
e 266 207 22.0
e 266 93 29.0
e 266 227 22.0
e 267 112 1.0
e 267 233 1.0
e 268 153 1.0
e 268 133 1.0
e 269 99 1.0
e 269 247 1.0
e 270 144 2.0
e 270 25 41.0
e 271 170 1.0
e 271 61 1.0
e 272 75 1.0
e 272 250 1.0
e 273 102 1.0
e 273 265 1.0
e 274 40 1.0
e 274 276 1.0
e 275 47 42.0
e 275 78 37.0
e 275 0 13.0
e 275 215 1.0
e 275 132 16.0
e 275 256 2.0
e 275 44 21.0
e 275 148 32.0
e 275 222 2.0
e 275 54 45.0
e 275 219 29.0
e 275 210 23.0
e 275 263 7.0
e 275 171 19.0
e 275 159 7.0
e 276 251 1.0
e 276 50 2.0
e 277 22 1.0
e 277 301 1.0
e 278 5 1.0
e 278 37 1.0
e 279 161 15.0
e 279 54 20.0
e 279 160 32.0
e 279 162 30.0
e 279 55 20.0
e 279 132 44.0
e 279 211 13.0
e 279 163 3.0
e 279 165 44.0
e 279 241 33.0
e 279 166 21.0
e 279 218 7.0
e 279 167 7.0
e 279 71 17.0
e 279 248 20.0
e 279 307 3.0
e 280 58 1.0
e 280 218 23.0
e 281 54 33.0
e 281 127 1.0
e 282 103 1.0
e 282 257 1.0
e 283 246 1.0
e 283 61 1.0
e 284 77 1.0
e 284 208 2.0
e 285 112 1.0
e 285 160 2.0
e 286 51 1.0
e 286 112 1.0
e 287 232 1.0
e 287 111 1.0
e 288 229 2.0
e 288 302 1.0
e 289 81 2.0
e 289 24 1.0
e 290 98 1.0
e 290 55 1.0
e 291 26 1.0
e 291 83 2.0
e 292 286 2.0
e 292 172 2.0
e 293 149 2.0
e 293 277 1.0
e 294 291 1.0
e 294 250 1.0
e 295 164 1.0
e 295 22 1.0
e 296 237 2.0
e 296 286 1.0
e 297 95 1.0
e 297 78 1.0
e 298 113 1.0
e 298 316 2.0
e 299 243 2.0
e 299 177 1.0
e 300 198 1.0
e 300 130 1.0
e 301 96 1.0
e 301 254 1.0
e 302 163 6.0
e 302 157 1.0
e 303 62 2.0
e 303 197 3.0
e 304 74 1.0
e 304 40 2.0
e 305 1 1.0
e 305 250 1.0
e 306 110 1.0
e 306 65 1.0
e 307 121 1.0
e 307 6 1.0
e 308 206 1.0
e 308 75 1.0
e 309 182 2.0
e 309 314 2.0
e 310 209 1.0
e 310 214 1.0
e 311 268 1.0
e 311 7 3.0
e 312 228 31.0
e 312 280 46.0
e 312 165 30.0
e 312 59 18.0
e 312 163 18.0
e 312 215 16.0
e 312 63 8.0
e 312 166 18.0
e 312 73 47.0
e 312 168 44.0
e 312 172 36.0
e 312 9 1.0
e 312 216 2.0
e 313 11 2.0
e 313 316 1.0
e 314 107 1.0
e 315 56 1.0
e 315 119 1.0
e 316 304 1.0
e 316 290 1.0
e 317 284 1.0
e 317 105 1.0
e 318 304 1.0
e 318 212 1.0
e 319 261 1.0
e 319 51 1.0
